This is Ipopt version 3.10.1, running with linear solver mumps.

Number of nonzeros in equality constraint Jacobian...:      177
Number of nonzeros in inequality constraint Jacobian.:        0
Number of nonzeros in Lagrangian Hessian.............:     3324

Total number of variables............................:       90
                     variables with only lower bounds:        0
                variables with lower and upper bounds:       90
                     variables with only upper bounds:        0
Total number of equality constraints.................:       59
Total number of inequality constraints...............:        0
        inequality constraints with only lower bounds:        0
   inequality constraints with lower and upper bounds:        0
        inequality constraints with only upper bounds:        0

iter    objective    inf_pr   inf_du lg(mu)  ||d||  lg(rg) alpha_du alpha_pr  ls
   0 -2.4652097e-04 3.44e-10 1.53e-04  -1.0 0.00e+00    -  0.00e+00 0.00e+00   0
   1 -2.5506203e-04 1.47e-10 6.49e-07  -1.7 1.59e-02    -  1.00e+00 1.00e+00f  1
   2 -2.7524662e-04 8.38e-11 4.25e-06  -2.5 3.87e-02    -  1.00e+00 1.00e+00f  1
   3 -2.8895857e-04 4.46e-12 1.23e-06  -3.8 1.71e-02    -  1.00e+00 1.00e+00f  1
   4 -9.3750389e-04 1.87e-13 6.95e-04  -5.7 1.61e-01    -  6.24e-01 1.00e+00f  1
   5 -1.9179191e-03 4.87e-13 1.28e-03  -5.7 6.72e-02  -2.0 9.38e-01 1.00e+00f  1
   6 -4.0059513e-03 8.12e-13 2.82e-03  -5.7 6.09e-02  -1.6 1.00e+00 1.00e+00f  1
   7 -5.2374665e-03 1.08e-12 3.26e-03  -5.7 4.62e-02  -1.1 1.00e+00 4.51e-01f  1
   8 -5.5453169e-03 1.04e-12 4.79e-03  -5.7 1.70e-02  -0.7 1.00e+00 2.94e-01f  1
   9 -6.1117205e-03 1.43e-12 8.40e-03  -5.7 7.47e-02  -1.2 1.00e+00 1.39e-01f  1
iter    objective    inf_pr   inf_du lg(mu)  ||d||  lg(rg) alpha_du alpha_pr  ls
  10 -6.8155205e-03 1.66e-12 3.43e-03  -5.7 2.15e-02  -0.8 1.00e+00 5.76e-01f  1
  11 -7.3150664e-03 1.89e-12 1.20e-02  -5.7 1.17e-01  -1.3 1.00e+00 8.35e-02f  1
  12 -8.0065120e-03 1.73e-12 4.49e-03  -5.7 2.98e-02  -0.8 1.00e+00 4.27e-01f  1
  13 -9.4224784e-03 2.39e-12 1.55e-02  -5.7 1.54e-01  -1.3 1.00e+00 1.62e-01f  1
  14 -1.1568403e-02 2.80e-12 4.91e-03  -5.7 3.55e-02  -0.9 1.00e+00 1.00e+00f  1
  15 -1.9634099e-02 6.77e-12 2.53e-02  -5.7 3.09e-01  -1.4 9.10e-01 2.85e-01f  1
  16 -2.0830076e-02 7.42e-12 2.77e-02  -5.7 1.00e-01  -0.9 1.00e+00 1.22e-01f  1
  17 -2.1314209e-02 7.02e-12 1.16e-02  -5.7 2.60e-02  -0.5 1.00e+00 1.76e-01f  1
  18 -2.7119147e-02 8.44e-12 9.79e-03  -5.7 1.01e-01  -1.0 5.01e-01 5.86e-01f  1
  19 -2.7730946e-02 7.90e-12 2.50e-02  -5.7 3.63e-02  -0.6 1.00e+00 1.72e-01f  1
iter    objective    inf_pr   inf_du lg(mu)  ||d||  lg(rg) alpha_du alpha_pr  ls
  20 -2.9015858e-02 8.50e-12 3.26e-02  -5.7 1.53e-01  -1.0 1.00e+00 7.76e-02f  1
  21 -3.2660576e-02 6.09e-12 9.82e-03  -5.7 4.04e-02  -0.6 1.00e+00 8.43e-01f  1
  22 -3.6601329e-02 8.41e-12 2.83e-02  -5.7 2.75e-01  -1.1 4.85e-01 1.03e-01f  1
  23 -3.7559657e-02 8.35e-12 2.90e-02  -5.7 5.52e-02  -0.7 1.00e+00 1.36e-01f  1
  24 -4.5222127e-02 1.39e-11 9.96e-02  -5.7 3.66e-01  -1.1 9.58e-01 1.35e-01f  1
  25 -4.5386951e-02 1.39e-11 4.49e-02  -5.7 9.19e-02  -0.7 1.00e+00 1.33e-02f  1
  26 -4.9923152e-02 1.78e-11 1.40e-01  -5.7 9.51e-01  -1.2 3.72e-01 3.53e-02f  1
  27 -5.3232843e-02 1.72e-11 3.16e-02  -5.7 8.78e-02  -0.8 1.00e+00 3.46e-01f  1
  28 -5.5739878e-02 1.97e-11 6.46e-02  -5.7 9.14e-01  -1.2 1.44e-01 2.54e-02f  1
  29 -5.7959459e-02 1.98e-11 4.29e-02  -5.7 9.50e-02  -0.8 1.00e+00 1.81e-01f  1
iter    objective    inf_pr   inf_du lg(mu)  ||d||  lg(rg) alpha_du alpha_pr  ls
  30 -6.3938364e-02 2.57e-11 7.57e-02  -5.7 1.32e+00  -1.3 1.12e-01 3.83e-02f  1
  31 -6.4518754e-02 2.53e-11 5.51e-02  -5.7 8.44e-02  -0.9 1.00e+00 4.97e-02f  1
  32 -7.9179991e-02 3.59e-11 4.85e-02  -5.7 1.67e+00  -1.3 5.52e-02 5.41e-02f  1
  33 -9.6919694e-02 4.05e-11 8.40e-02  -5.7 2.19e-01  -0.9 1.00e+00 3.49e-01f  1
  34 -1.0539813e-01 3.41e-11 4.40e-02  -5.7 6.93e-02  -0.5 6.46e-01 4.29e-01f  1
  35 -1.0631799e-01 3.48e-11 4.32e-02  -5.7 8.72e-01  -1.0 2.02e-03 3.24e-03f  1
  36 -1.1905644e-01 2.68e-11 3.04e-02  -5.7 7.43e-02  -0.5 1.00e+00 5.12e-01f  1
  37 -1.2994591e-01 1.44e-11 2.20e-02  -5.7 2.73e-02  -0.1 7.19e-01 1.00e+00f  1
  38 -1.4890197e-01 2.36e-11 2.95e-02  -5.7 1.62e-01  -0.6 2.72e-01 2.57e-01f  1
  39 -1.5523073e-01 1.54e-11 7.46e-02  -5.7 4.83e-02  -0.2 7.93e-01 2.82e-01f  1
iter    objective    inf_pr   inf_du lg(mu)  ||d||  lg(rg) alpha_du alpha_pr  ls
  40 -1.9880267e-01 3.40e-11 4.96e-02  -5.7 3.96e-01  -0.6 1.58e-01 1.75e-01f  1
  41 -1.9935313e-01 3.13e-11 1.05e-01  -5.7 4.19e-02  -0.2 3.10e-01 1.05e-01f  1
  42 -2.0371116e-01 3.27e-11 4.25e-01  -5.7 2.54e-01  -0.7 8.18e-01 3.44e-02f  1
  43 -2.1390839e-01 1.17e-10 3.15e-01  -5.7 5.85e-02  -0.3 1.44e-01 3.67e-01f  1
  44 -2.9708312e-01 5.78e-11 1.69e-01  -5.7 3.37e-01  -0.7 2.92e-01 3.87e-01f  1
  45 -3.3278535e-01 5.43e-11 9.65e-02  -5.7 1.49e-01  -0.3 3.35e-02 2.83e-01f  1
  46 -3.3467432e-01 5.21e-11 9.20e-02  -5.7 7.00e-02   0.1 1.62e-01 9.24e-02f  1
  47 -3.4045768e-01 5.10e-11 1.00e-01  -5.7 2.35e-01  -0.4 3.96e-04 3.51e-02f  1
  48 -3.5135932e-01 4.37e-11 8.65e-02  -5.7 5.02e-02   0.1 1.69e-01 3.08e-01f  1
  49 -3.6430412e-01 4.60e-11 8.46e-02  -5.7 2.73e-01  -0.4 5.49e-04 6.76e-02f  1
iter    objective    inf_pr   inf_du lg(mu)  ||d||  lg(rg) alpha_du alpha_pr  ls
  50 -3.6982670e-01 4.81e-11 3.38e-01  -5.7 9.82e+00  -0.9 2.47e-02 8.67e-04f  1
  51 -4.1841720e-01 5.41e-11 3.34e-01  -5.7 2.66e-01  -0.5 1.00e+00 2.53e-01f  1
  52 -4.2604360e-01 5.64e-11 6.27e-01  -5.7 3.94e-01  -0.9 1.00e+00 3.16e-02f  1
  53 -4.2748926e-01 7.67e-11 2.13e-01  -5.7 1.24e-02    -  1.00e+00 5.06e-01f  1
  54 -4.2815281e-01 1.67e-10 4.33e-01  -5.7 5.76e-03    -  5.65e-02 6.49e-01f  1
  55 -4.2833859e-01 5.20e-11 1.97e-01  -5.7 1.92e-03    -  1.00e+00 6.02e-01f  1
  56 -4.2845491e-01 7.97e-11 3.35e-06  -5.7 7.44e-04    -  1.00e+00 1.00e+00f  1
  57 -4.2858393e-01 1.40e-14 4.91e-08  -8.6 7.72e-05    -  1.00e+00 1.00e+00f  1
  58 -4.2858389e-01 9.28e-12 3.70e-15  -8.6 1.56e-08    -  1.00e+00 1.00e+00h  1

Number of Iterations....: 58

                                   (scaled)                 (unscaled)
Objective...............:  -4.2858389338032349e-01   -4.2858389338032349e-01
Dual infeasibility......:   3.7048480554644290e-15    3.7048480554644290e-15
Constraint violation....:   9.2759133707431829e-12    9.2759133707431829e-12
Complementarity.........:   3.0024375500457549e-09    3.0024375500457549e-09
Overall NLP error.......:   3.0024375500457549e-09    3.0024375500457549e-09


Number of objective function evaluations             = 59
Number of objective gradient evaluations             = 59
Number of equality constraint evaluations            = 59
Number of inequality constraint evaluations          = 0
Number of equality constraint Jacobian evaluations   = 1
Number of inequality constraint Jacobian evaluations = 0
Number of Lagrangian Hessian evaluations             = 58
Total CPU secs in IPOPT (w/o function evaluations)   =      0.170
Total CPU secs in NLP function evaluations           =      2.120

EXIT: Optimal Solution Found.
